n_machines = 5;
n_resources = 7;
n_jobs = 140;
horizon = 662;
LB = 132;
n_jobs_per_resource = [20, 20, 20, 20, 20, 20, 20];
duration = [4, 1, 1, 3, 8, 3, 3, 5, 9, 6, 9, 5, 4, 4, 3, 8, 8, 8, 4, 5, 7, 5, 4, 1, 5, 2, 4, 2, 2, 5, 6, 6, 6, 2, 3, 7, 1, 2, 1, 3, 3, 6, 1, 4, 1, 5, 7, 4, 9, 4, 3, 3, 9, 3, 7, 3, 4, 6, 6, 7, 4, 7, 1, 2, 3, 7, 7, 8, 5, 5, 4, 2, 8, 4, 5, 4, 3, 9, 7, 6, 1, 2, 4, 1, 1, 5, 4, 6, 8, 1, 6, 5, 6, 9, 9, 1, 5, 8, 3, 8, 6, 3, 6, 4, 9, 3, 4, 3, 8, 7, 2, 1, 5, 3, 1, 8, 3, 4, 9, 9, 9, 5, 3, 2, 9, 6, 7, 9, 7, 4, 1, 1, 5, 2, 9, 3, 8, 3, 2, 5]